60

 0   1   2   3   1   2   3   4   2   3   4   5   3   4   5   6   4   5   6   7   5   6   7   8   6   7   8   9   7   8   9  10   8   9  10  11   9  10  11  12  10  11  12  13  11  12  13  14  12  13  14  15  13  14  15  16  14  15  16  17  
 1   0   1   2   2   1   2   3   3   2   3   4   4   3   4   5   5   4   5   6   6   5   6   7   7   6   7   8   8   7   8   9   9   8   9  10  10   9  10  11  11  10  11  12  12  11  12  13  13  12  13  14  14  13  14  15  15  14  15  16  
 2   1   0   1   3   2   1   2   4   3   2   3   5   4   3   4   6   5   4   5   7   6   5   6   8   7   6   7   9   8   7   8  10   9   8   9  11  10   9  10  12  11  10  11  13  12  11  12  14  13  12  13  15  14  13  14  16  15  14  15  
 3   2   1   0   4   3   2   1   5   4   3   2   6   5   4   3   7   6   5   4   8   7   6   5   9   8   7   6  10   9   8   7  11  10   9   8  12  11  10   9  13  12  11  10  14  13  12  11  15  14  13  12  16  15  14  13  17  16  15  14  
 1   2   3   4   0   1   2   3   1   2   3   4   2   3   4   5   3   4   5   6   4   5   6   7   5   6   7   8   6   7   8   9   7   8   9  10   8   9  10  11   9  10  11  12  10  11  12  13  11  12  13  14  12  13  14  15  13  14  15  16  
 2   1   2   3   1   0   1   2   2   1   2   3   3   2   3   4   4   3   4   5   5   4   5   6   6   5   6   7   7   6   7   8   8   7   8   9   9   8   9  10  10   9  10  11  11  10  11  12  12  11  12  13  13  12  13  14  14  13  14  15  
 3   2   1   2   2   1   0   1   3   2   1   2   4   3   2   3   5   4   3   4   6   5   4   5   7   6   5   6   8   7   6   7   9   8   7   8  10   9   8   9  11  10   9  10  12  11  10  11  13  12  11  12  14  13  12  13  15  14  13  14  
 4   3   2   1   3   2   1   0   4   3   2   1   5   4   3   2   6   5   4   3   7   6   5   4   8   7   6   5   9   8   7   6  10   9   8   7  11  10   9   8  12  11  10   9  13  12  11  10  14  13  12  11  15  14  13  12  16  15  14  13  
 2   3   4   5   1   2   3   4   0   1   2   3   1   2   3   4   2   3   4   5   3   4   5   6   4   5   6   7   5   6   7   8   6   7   8   9   7   8   9  10   8   9  10  11   9  10  11  12  10  11  12  13  11  12  13  14  12  13  14  15  
 3   2   3   4   2   1   2   3   1   0   1   2   2   1   2   3   3   2   3   4   4   3   4   5   5   4   5   6   6   5   6   7   7   6   7   8   8   7   8   9   9   8   9  10  10   9  10  11  11  10  11  12  12  11  12  13  13  12  13  14  
 4   3   2   3   3   2   1   2   2   1   0   1   3   2   1   2   4   3   2   3   5   4   3   4   6   5   4   5   7   6   5   6   8   7   6   7   9   8   7   8  10   9   8   9  11  10   9  10  12  11  10  11  13  12  11  12  14  13  12  13  
 5   4   3   2   4   3   2   1   3   2   1   0   4   3   2   1   5   4   3   2   6   5   4   3   7   6   5   4   8   7   6   5   9   8   7   6  10   9   8   7  11  10   9   8  12  11  10   9  13  12  11  10  14  13  12  11  15  14  13  12  
 3   4   5   6   2   3   4   5   1   2   3   4   0   1   2   3   1   2   3   4   2   3   4   5   3   4   5   6   4   5   6   7   5   6   7   8   6   7   8   9   7   8   9  10   8   9  10  11   9  10  11  12  10  11  12  13  11  12  13  14  
 4   3   4   5   3   2   3   4   2   1   2   3   1   0   1   2   2   1   2   3   3   2   3   4   4   3   4   5   5   4   5   6   6   5   6   7   7   6   7   8   8   7   8   9   9   8   9  10  10   9  10  11  11  10  11  12  12  11  12  13  
 5   4   3   4   4   3   2   3   3   2   1   2   2   1   0   1   3   2   1   2   4   3   2   3   5   4   3   4   6   5   4   5   7   6   5   6   8   7   6   7   9   8   7   8  10   9   8   9  11  10   9  10  12  11  10  11  13  12  11  12  
 6   5   4   3   5   4   3   2   4   3   2   1   3   2   1   0   4   3   2   1   5   4   3   2   6   5   4   3   7   6   5   4   8   7   6   5   9   8   7   6  10   9   8   7  11  10   9   8  12  11  10   9  13  12  11  10  14  13  12  11  
 4   5   6   7   3   4   5   6   2   3   4   5   1   2   3   4   0   1   2   3   1   2   3   4   2   3   4   5   3   4   5   6   4   5   6   7   5   6   7   8   6   7   8   9   7   8   9  10   8   9  10  11   9  10  11  12  10  11  12  13  
 5   4   5   6   4   3   4   5   3   2   3   4   2   1   2   3   1   0   1   2   2   1   2   3   3   2   3   4   4   3   4   5   5   4   5   6   6   5   6   7   7   6   7   8   8   7   8   9   9   8   9  10  10   9  10  11  11  10  11  12  
 6   5   4   5   5   4   3   4   4   3   2   3   3   2   1   2   2   1   0   1   3   2   1   2   4   3   2   3   5   4   3   4   6   5   4   5   7   6   5   6   8   7   6   7   9   8   7   8  10   9   8   9  11  10   9  10  12  11  10  11  
 7   6   5   4   6   5   4   3   5   4   3   2   4   3   2   1   3   2   1   0   4   3   2   1   5   4   3   2   6   5   4   3   7   6   5   4   8   7   6   5   9   8   7   6  10   9   8   7  11  10   9   8  12  11  10   9  13  12  11  10  
 5   6   7   8   4   5   6   7   3   4   5   6   2   3   4   5   1   2   3   4   0   1   2   3   1   2   3   4   2   3   4   5   3   4   5   6   4   5   6   7   5   6   7   8   6   7   8   9   7   8   9  10   8   9  10  11   9  10  11  12  
 6   5   6   7   5   4   5   6   4   3   4   5   3   2   3   4   2   1   2   3   1   0   1   2   2   1   2   3   3   2   3   4   4   3   4   5   5   4   5   6   6   5   6   7   7   6   7   8   8   7   8   9   9   8   9  10  10   9  10  11  
 7   6   5   6   6   5   4   5   5   4   3   4   4   3   2   3   3   2   1   2   2   1   0   1   3   2   1   2   4   3   2   3   5   4   3   4   6   5   4   5   7   6   5   6   8   7   6   7   9   8   7   8  10   9   8   9  11  10   9  10  
 8   7   6   5   7   6   5   4   6   5   4   3   5   4   3   2   4   3   2   1   3   2   1   0   4   3   2   1   5   4   3   2   6   5   4   3   7   6   5   4   8   7   6   5   9   8   7   6  10   9   8   7  11  10   9   8  12  11  10   9  
 6   7   8   9   5   6   7   8   4   5   6   7   3   4   5   6   2   3   4   5   1   2   3   4   0   1   2   3   1   2   3   4   2   3   4   5   3   4   5   6   4   5   6   7   5   6   7   8   6   7   8   9   7   8   9  10   8   9  10  11  
 7   6   7   8   6   5   6   7   5   4   5   6   4   3   4   5   3   2   3   4   2   1   2   3   1   0   1   2   2   1   2   3   3   2   3   4   4   3   4   5   5   4   5   6   6   5   6   7   7   6   7   8   8   7   8   9   9   8   9  10  
 8   7   6   7   7   6   5   6   6   5   4   5   5   4   3   4   4   3   2   3   3   2   1   2   2   1   0   1   3   2   1   2   4   3   2   3   5   4   3   4   6   5   4   5   7   6   5   6   8   7   6   7   9   8   7   8  10   9   8   9  
 9   8   7   6   8   7   6   5   7   6   5   4   6   5   4   3   5   4   3   2   4   3   2   1   3   2   1   0   4   3   2   1   5   4   3   2   6   5   4   3   7   6   5   4   8   7   6   5   9   8   7   6  10   9   8   7  11  10   9   8  
 7   8   9  10   6   7   8   9   5   6   7   8   4   5   6   7   3   4   5   6   2   3   4   5   1   2   3   4   0   1   2   3   1   2   3   4   2   3   4   5   3   4   5   6   4   5   6   7   5   6   7   8   6   7   8   9   7   8   9  10  
 8   7   8   9   7   6   7   8   6   5   6   7   5   4   5   6   4   3   4   5   3   2   3   4   2   1   2   3   1   0   1   2   2   1   2   3   3   2   3   4   4   3   4   5   5   4   5   6   6   5   6   7   7   6   7   8   8   7   8   9  
 9   8   7   8   8   7   6   7   7   6   5   6   6   5   4   5   5   4   3   4   4   3   2   3   3   2   1   2   2   1   0   1   3   2   1   2   4   3   2   3   5   4   3   4   6   5   4   5   7   6   5   6   8   7   6   7   9   8   7   8  
10   9   8   7   9   8   7   6   8   7   6   5   7   6   5   4   6   5   4   3   5   4   3   2   4   3   2   1   3   2   1   0   4   3   2   1   5   4   3   2   6   5   4   3   7   6   5   4   8   7   6   5   9   8   7   6  10   9   8   7  
 8   9  10  11   7   8   9  10   6   7   8   9   5   6   7   8   4   5   6   7   3   4   5   6   2   3   4   5   1   2   3   4   0   1   2   3   1   2   3   4   2   3   4   5   3   4   5   6   4   5   6   7   5   6   7   8   6   7   8   9  
 9   8   9  10   8   7   8   9   7   6   7   8   6   5   6   7   5   4   5   6   4   3   4   5   3   2   3   4   2   1   2   3   1   0   1   2   2   1   2   3   3   2   3   4   4   3   4   5   5   4   5   6   6   5   6   7   7   6   7   8  
10   9   8   9   9   8   7   8   8   7   6   7   7   6   5   6   6   5   4   5   5   4   3   4   4   3   2   3   3   2   1   2   2   1   0   1   3   2   1   2   4   3   2   3   5   4   3   4   6   5   4   5   7   6   5   6   8   7   6   7  
11  10   9   8  10   9   8   7   9   8   7   6   8   7   6   5   7   6   5   4   6   5   4   3   5   4   3   2   4   3   2   1   3   2   1   0   4   3   2   1   5   4   3   2   6   5   4   3   7   6   5   4   8   7   6   5   9   8   7   6  
 9  10  11  12   8   9  10  11   7   8   9  10   6   7   8   9   5   6   7   8   4   5   6   7   3   4   5   6   2   3   4   5   1   2   3   4   0   1   2   3   1   2   3   4   2   3   4   5   3   4   5   6   4   5   6   7   5   6   7   8  
10   9  10  11   9   8   9  10   8   7   8   9   7   6   7   8   6   5   6   7   5   4   5   6   4   3   4   5   3   2   3   4   2   1   2   3   1   0   1   2   2   1   2   3   3   2   3   4   4   3   4   5   5   4   5   6   6   5   6   7  
11  10   9  10  10   9   8   9   9   8   7   8   8   7   6   7   7   6   5   6   6   5   4   5   5   4   3   4   4   3   2   3   3   2   1   2   2   1   0   1   3   2   1   2   4   3   2   3   5   4   3   4   6   5   4   5   7   6   5   6  
12  11  10   9  11  10   9   8  10   9   8   7   9   8   7   6   8   7   6   5   7   6   5   4   6   5   4   3   5   4   3   2   4   3   2   1   3   2   1   0   4   3   2   1   5   4   3   2   6   5   4   3   7   6   5   4   8   7   6   5  
10  11  12  13   9  10  11  12   8   9  10  11   7   8   9  10   6   7   8   9   5   6   7   8   4   5   6   7   3   4   5   6   2   3   4   5   1   2   3   4   0   1   2   3   1   2   3   4   2   3   4   5   3   4   5   6   4   5   6   7  
11  10  11  12  10   9  10  11   9   8   9  10   8   7   8   9   7   6   7   8   6   5   6   7   5   4   5   6   4   3   4   5   3   2   3   4   2   1   2   3   1   0   1   2   2   1   2   3   3   2   3   4   4   3   4   5   5   4   5   6  
12  11  10  11  11  10   9  10  10   9   8   9   9   8   7   8   8   7   6   7   7   6   5   6   6   5   4   5   5   4   3   4   4   3   2   3   3   2   1   2   2   1   0   1   3   2   1   2   4   3   2   3   5   4   3   4   6   5   4   5  
13  12  11  10  12  11  10   9  11  10   9   8  10   9   8   7   9   8   7   6   8   7   6   5   7   6   5   4   6   5   4   3   5   4   3   2   4   3   2   1   3   2   1   0   4   3   2   1   5   4   3   2   6   5   4   3   7   6   5   4  
11  12  13  14  10  11  12  13   9  10  11  12   8   9  10  11   7   8   9  10   6   7   8   9   5   6   7   8   4   5   6   7   3   4   5   6   2   3   4   5   1   2   3   4   0   1   2   3   1   2   3   4   2   3   4   5   3   4   5   6  
12  11  12  13  11  10  11  12  10   9  10  11   9   8   9  10   8   7   8   9   7   6   7   8   6   5   6   7   5   4   5   6   4   3   4   5   3   2   3   4   2   1   2   3   1   0   1   2   2   1   2   3   3   2   3   4   4   3   4   5  
13  12  11  12  12  11  10  11  11  10   9  10  10   9   8   9   9   8   7   8   8   7   6   7   7   6   5   6   6   5   4   5   5   4   3   4   4   3   2   3   3   2   1   2   2   1   0   1   3   2   1   2   4   3   2   3   5   4   3   4  
14  13  12  11  13  12  11  10  12  11  10   9  11  10   9   8  10   9   8   7   9   8   7   6   8   7   6   5   7   6   5   4   6   5   4   3   5   4   3   2   4   3   2   1   3   2   1   0   4   3   2   1   5   4   3   2   6   5   4   3  
12  13  14  15  11  12  13  14  10  11  12  13   9  10  11  12   8   9  10  11   7   8   9  10   6   7   8   9   5   6   7   8   4   5   6   7   3   4   5   6   2   3   4   5   1   2   3   4   0   1   2   3   1   2   3   4   2   3   4   5  
13  12  13  14  12  11  12  13  11  10  11  12  10   9  10  11   9   8   9  10   8   7   8   9   7   6   7   8   6   5   6   7   5   4   5   6   4   3   4   5   3   2   3   4   2   1   2   3   1   0   1   2   2   1   2   3   3   2   3   4  
14  13  12  13  13  12  11  12  12  11  10  11  11  10   9  10  10   9   8   9   9   8   7   8   8   7   6   7   7   6   5   6   6   5   4   5   5   4   3   4   4   3   2   3   3   2   1   2   2   1   0   1   3   2   1   2   4   3   2   3  
15  14  13  12  14  13  12  11  13  12  11  10  12  11  10   9  11  10   9   8  10   9   8   7   9   8   7   6   8   7   6   5   7   6   5   4   6   5   4   3   5   4   3   2   4   3   2   1   3   2   1   0   4   3   2   1   5   4   3   2  
13  14  15  16  12  13  14  15  11  12  13  14  10  11  12  13   9  10  11  12   8   9  10  11   7   8   9  10   6   7   8   9   5   6   7   8   4   5   6   7   3   4   5   6   2   3   4   5   1   2   3   4   0   1   2   3   1   2   3   4  
14  13  14  15  13  12  13  14  12  11  12  13  11  10  11  12  10   9  10  11   9   8   9  10   8   7   8   9   7   6   7   8   6   5   6   7   5   4   5   6   4   3   4   5   3   2   3   4   2   1   2   3   1   0   1   2   2   1   2   3  
15  14  13  14  14  13  12  13  13  12  11  12  12  11  10  11  11  10   9  10  10   9   8   9   9   8   7   8   8   7   6   7   7   6   5   6   6   5   4   5   5   4   3   4   4   3   2   3   3   2   1   2   2   1   0   1   3   2   1   2  
16  15  14  13  15  14  13  12  14  13  12  11  13  12  11  10  12  11  10   9  11  10   9   8  10   9   8   7   9   8   7   6   8   7   6   5   7   6   5   4   6   5   4   3   5   4   3   2   4   3   2   1   3   2   1   0   4   3   2   1  
14  15  16  17  13  14  15  16  12  13  14  15  11  12  13  14  10  11  12  13   9  10  11  12   8   9  10  11   7   8   9  10   6   7   8   9   5   6   7   8   4   5   6   7   3   4   5   6   2   3   4   5   1   2   3   4   0   1   2   3  
15  14  15  16  14  13  14  15  13  12  13  14  12  11  12  13  11  10  11  12  10   9  10  11   9   8   9  10   8   7   8   9   7   6   7   8   6   5   6   7   5   4   5   6   4   3   4   5   3   2   3   4   2   1   2   3   1   0   1   2  
16  15  14  15  15  14  13  14  14  13  12  13  13  12  11  12  12  11  10  11  11  10   9  10  10   9   8   9   9   8   7   8   8   7   6   7   7   6   5   6   6   5   4   5   5   4   3   4   4   3   2   3   3   2   1   2   2   1   0   1  
17  16  15  14  16  15  14  13  15  14  13  12  14  13  12  11  13  12  11  10  12  11  10   9  11  10   9   8  10   9   8   7   9   8   7   6   8   7   6   5   7   6   5   4   6   5   4   3   5   4   3   2   4   3   2   1   3   2   1   0  

 0  13  25  67  91   1   1   1  13   1   2  88   2   1   0   3  22  42  80  41  67   0  26   1   0   1  12   5  24  15   2  17   1  66  80  16  80  38  11   0   1   0   0  29   0   8  46   1  11   1  14  10   1   2   2   0  10   1   0  15  
14   0  10   1  28   0   4  40  31   6  65   1   1   5   1   0   1   1   0  12   5   1   0  22   0   0  31  37   2   0   3   1  37  29  81  84   6   1   1   4   0   0   1  84   1   1   0   1  15   1   2   8   0   3   1  37   1   1   0  45  
 1   6   0   1   1   1   1  22   1   0  32   0   0  93   0   0   0   0  84   5  91   1   0   3   0   0   1   1  89  44   0   1   3  53   3   6   2   1   1   1   1  55   1   3  55   1   0   7  11  40   1   0   1  21   0  37   0   0   0   1  
11  57   0   0  26  12  25   1  25   1   0   0  59  24  15   0   3   3   1   1  25   0   0   0  24   9  46   5   3   1   1  85   0   1   2   9  61  95   1  17   0   4  23   0   0  34  84   2   0   4  92   1   0  11   0  75   3   9   1  45  
 1   0   8   1   0   1   0   0   0  60  20   0   0  81   2   1   0   0  59  10   1  39  73   0  15  11   1  91  60  31   0  52   1   1   1   1   0  20   8   3   1   7   0   1  52   1   4   0   2  78  85  68   2   1   0   1  14  61   0   1  
 0   1  31  28  31   0  18   0   0   0   1   4   0   0   0   0   0  73  52   1   4   1   0  32  51  89   7   0   6   9   0   3   1   1   1   1   0   0   1   7   0  68   1   0   9   0   0   0   1   1  18   0  71   1  16   0   5  50  11   1  
30   1   0   1   1   6   0   1   1  27  50   1  30   6  96   0  24   1  89  11  91  73  74  37  68   1   1   1  61  89  14  32  93  39   0   1   1   7   0  51   0   0   1   1   1   0   1   9   6   0   1   2   1  34  19  21   0   0  45   1  
 0  51   0   0   1   1  45   0   0   0   1  41   1   3   4   0  89   0  58   1   6  70  52   0  11   6   0  45   1   1   0   0   1   8   0   1   0  96   8   0   1   1  44  80  47   1  81  86  29   0   2   1  82   1  15   1  18  96   0   1  
 1   1   1   0   0  10   0  10   0   0   0   2   2   0   0  71  11   4  58   0   0   1   1  99  38   6   1   1   1   1  85  47   1   0   1   0   1   1   1   0   1   0   0   1  20   1   3   1   0   0  57   0  44   1   1   0   0   9  13  74  
 1   0  14   2   0  21   1   1   0   0   0   1  54   0   1   2   1   9  20   0   1   1  80   1  11   1   1   0   1  13   1  12   0  48  51   1   1   0   1   1  43   7   2   1   1   9  77   0   1  22   2  89  43   1   0   1  12   0   0  18  
61   1   1  55  16  41  14  10  24   1   0   2  15   0  51  19   1   1  45   1  74   0  11  11   1   0  10   3   0   6   3  52  31   0   1  65  12  22  85  29   9   1   1   0   0   1  64  16   5   1   1  89   0  41   6   1   2   0   0   3  
 1  65   9   5   0   5   1   0   1   1   0   0   0   1   0  24  13   1   1  39   0   0  68   8   1  70   0   1   0  66  83  62  28   1  19  59  22   1  61  14  62   0   0   2  29   0   0   0   0  35   0   1  53   1  66  39   0   0   0   0  
 1   1  56   1   1   5  64   1  23   3  95   1   0   0   1  23  32   1   1  70  87  75  27  17   6  30  66   7   2   0  20   8   1   0  16   0  37   1   0  76  38   1  76  12  51  15  26   1   1   0   0   3   9  67  18   0  12   1   1  30  
 1   0   1   1   1  39  90   1   0   4   0   1   0   0  20   0   0   3   0  16   1  16   3   0   0   1   0  12   0  18   0   1  25  80  16   1  30  11  26   1   8   0  64   1   1   1   0  20   1   1   0   1   6  56  62  31   2  45   0   0  
 0   1   7   4  10  93   1  17   0  27  19   2   1  45   0   7  78   1   0   2   2  52  18  46  12  96   7  25   1  23  38   8  23  15  65   1   1  65   6   5   3   1   4  51  89  11   0   1  69   1  24  46  63   5  26   1   5  39   1   1  
13   1  75  29   1   1  32   0  26   7   1   2  52   1   1   0   0   1   1   0  58  70  83  41   1  94   1   0   1  13  17   0   0  83   0   9   0   1  83   6   1   1   1  86   2   0   1  22  23   1   1   1   2  63  44  80   0  98   0   0  
25  74   6   0   0   3   3   0   0   1   0   4  70   5   0   4   0   0  56  24   1   1   0   5  29   2   0   1   1   0   1  21  10   1   1  50   1  87   1   0  56  25  57  47   1   2   0  35  41   1  31   6  78   0   1   1  30   1   0   0  
 0   7   8   1   7   2  10  47   1   1   0   5   0   1   0   0  40   0   0   1   1   0   4  68   1   1  11  63   0  94   0  16  16  56   1   2   5   0   2   2   1   0   0  48  16   1   0   3   0   1   0   1  10   0  11   0   9   1   5   0  
 1  85   0   5  54   3  28  23   1   0   1   6   3  86  77   1   0  30   0  80   0   1  19  81   0  18   2  34   1  13   2   0  56   1  74   1  43   5  35   1   5   1   9  85   0   1   0  12   0   1   2  63  43  63  29   0   2  26   0  48  
 1   0  54   1   1   1  61  23   1   0   4   1   0   0   1   2   0   0  27   0   4   5  49  24   7   1   1  25  13  64   1  60  19  16  48   0  55   0   1  26   1   8  32  19   5   0   1   1   0  34  32   1   0   1  90  71  68   1   1   0  
 1  31  12   0   1   2   0  15  81   0   1   1  46   8  35  33   1  18  85   0   0   0  97   2  59  59  83   3   1   0   0   1   1  78   1   0   1  91   1   7   1  32  79  22   1   0  66  49   1   2  22  62  39  45   1   0   5  14  43   0  
 3  14  15   0   0   9  16  24   1   0  38  35  73  22   1  53   7  51   1   0   0   0   1   1  35   2   1   1   8  68  34   0  56   1   0   5  10   1   0   0   0   7   0   1   1   1  12   1  30   4  36   1   1  21   1   0   0  27  67  81  
 0   2   1  14   1  31   5   0  30   1   4  41   1   1  85  18   5   1  22   0  46   1   0   6   0  92   0   3  20   1   8  15  98  66   1  10  66   0   0   4   0   1   0  58   0   1  88   0  17   0   0   1   0   3   1   0   1   1   1  61  
17  21   1   0  83   0   2   1   2   0   0   1   1   1   1   0  77  66   1   0   4  16   0   0   0   1  82   1  62   3  54  46  17   9  53   0   5   1   1   2  11  29   1   0   0  37   0   0   0  22   0  23   1   5  37   0   7  12  30   0  
 0   1  26   0   1   2   0  14  81   1   1   8   4   1   2  35   1  58  10   1  84   0  41  53   0  90  95   1   1   2   1  44  37  18   1   1   1   1   6  96   1   1   1   0  56  48   1  33   0   1   1  35  13  22   1   9   1   0  22  46  
11  44  14   1   1  70   1   1   7   1   0  10   0   0  30  10   1  87   8  64   0   7   1   1   0   0  39   0  39   6  24   1  36   0   0   0   0   1   1  36   0   1   1   0  11  26   6   0  15   2  11   1  71   1  50   0  34   0  13  40  
 1   1  33  18   1   1   0   1  85   1   0  47  33   1   2  44   1   0  61   0   1   1  13   1   0   0   0   7  78   2   0   1  45  19   0  90   1   5  10  47   1   0   1   0   1   0  11  30   0   0  54   0   1   0   1   0   1   6   1  32  
93  13  62   0  50  93  58   0   4  50  27  19  79  95   1   0  33   1   1   1   1   1   1   0   1   0   3   0  26   0  63   1   1   1  25   0  24  14  18   0   8   0  25   1   1  94   1  12   4   1   0   1   4  81   1   2   0   1   1   0  
 0   1  12   1   1   0  30  94   5   0  22  63  14   1  15   2   0   0   1   0  54   0   0   0   2  46   0   1   0   0   1  50   7   1   0   1   2   1  53   1  13   1   1   0   2   1   1   1  50  19  25   1   8  19   0   0   0  36   1  42  
 0   1   2   3  19   1  17   0   1  54   3   1   1   0   1   1  92   1   0   0   1  94   1  16  44   0   0  62  44   0   0   9   1  55   1   1   1   1   0   0   4  11  66   3   0   1  39  55   1   1   0  75   1   1  87  34   1  57  52  42  
 1   1  68  18   0   0   4   1   1   6   8  33   1  63   4   1  42  27   0   0   1   0   0   1  40   1  83   0  55   0   0   1   1   1   7   0  41   0   1  50   1   1   6   5   1   1   1   1   1  12   0   7  14   1  35  42   1   0   1  71  
 1   1   8  88   2   0  93   0  96  37   0   0  17  43   1   1   1   0   1  89   1   1  10   1  61  26  19  68   1   0   1   0  31  63   0   0   1   1  84  63   2  26  16  28  87   8   5   1   5   1   1  10   1  95   1   1  47   1   1   0  
14   0   5   8  69   2   1  62  10   1   1   1   1  99   1   1  23  64   1  91   1   1  93  82  34   9   1   1   1   0  62  39   0   0   1   5  18   0   5   1  95   1  74  55   0   1   1   1   1   1  29   0   1   1   1   0   0   0   0  20  
12   7  38  63   0   0   8   1  78  24  80   0   0   3   1   0  23   1   1   0   6   4   0   0   1   7  13   0  43   1  15   0   1   0   7   0  95   1   1   1   1   0  39  17   0  84   1  23  92   1   0  13   1  36   9  99   0  30  46   1  
 1  26  43   9  10  21   1   7   9   4  27   0   0  55   0   1   0  55   1  85  20  14  21  22   1  84   0  14   1   0   1  77  13  36   0   7   0   1   1   1   1   0   5   0   0  34   8   0   1   2   1   3  97  75  51  16   0   0   1   0  
97   1   2   0  87   1   8   1  74   0   0  28   1   5   0   0  56  34   2  41   1   0   1  74  57  16  38  16  48   1  29   0  17   7   3   0   0   1   1   1  40  44   1   1  49   1   1   1   0   0   1   1  78   8  93   0   0  70   3   1  
 1   2   2   1   0   1   1   1   0   3  98  21  26   1   3   1   1   1   0   1  22   0  20   5   0   1  17   1   1   0   1   1   1   1   0   3   0   1   1  17   6  27   0   1  80   1   0   6   0   7  43   1  25  66  27   9  59   0   2   1  
 7   0   0   1  16   0   1   0   1  45   1   2   1   5  18   0  70   7   4   1  21   0   1   4   1   3  15   1   1  15  90   1  77   1   4  12   0   0   4  32  48   0  53   1   0   0  85  40   1   1   1  13   1  45   2   1   0   0  63   1  
42   0   4   0  57   0   0  24  16   1  76  33   0  30  21   0   0   1   0   8   2  50  63   1  26  30   0   1   0   0  48   0   1  54   1   0   1  22   0   1   0   0  37   5   2  15   1   2  28   1  12   0   1   5   1  73   0  29  10   0  
 1   2   1   0   0   3   8  82   1   0  39   1  37   1   1   1  47   1  96   0   1   1   4   1   0   4  13   0  26   6   1   0  46   7   3   0   0   1  71   0   2   1  14  19   0   1  30  26  56   0   0   0   1   0   1   0   0   1  24   0  
 1  69  70   0   1  12  40  63   1   2   8   1   1   1  20   5  97  21   1   1   0   9   1   1   3  38   1   1   1   4   1   1  42   2  42   1   2   1   4  15   0   1   0   0   1   0   0   0  45   0   3   0   0   0  24  17   2  15   1   6  
 0   0   0   0   0   1   7   1   0  41   5   1   0   3   0   1  42   1  10   1   1   1   6   1   0   0   1  13   1   0  52   0  22   0   1   1   2   1   1   0  32   0  52   0  10   1   1   1  53  43  22   4   1  45  65   0   9   4   1   9  
40   7   0   0  99   1   4  65  50  12   2   7   0   2  26   0   1   6   0   2   3   1   1   0  10   0   0  26   1   1   6  25   0  44   0  78   1   0  83   0   0  29   0  45  26   1   1   0   0  10   1   1   0   1   1   1   3   1   1  39  
 1   1  28   0  25   8   1   1   1  35   9  30   0   1   1   0  42   1   1  42  60  19  10  41   5  29   1   0   1  18   1  38   0  39   1   5   0   1   1   1   1  46   1   0   1   2  70  24   0  15  52   1   1  73  18   3   3  14   0   0  
 1   1   0  31   0   0   1   1   1   0  70   0   3  17   0  26   1   1   1   3   1   1  13   0   0  13  48   0  13   1   1   6  20  25   1   0  32   0  81  64   1   1  16   0   0   1   1  31  52  29   1   0  21  36  19   0  17  35  94  14  
 2   1  60  18   0  23   0  39  43  54   1   9  77  95   1  39   0   0   8  10   0  90   0   3  56   1   3   5  42   1   0   1   1  24   0   0   1  37  66   0   1  61  45   0   1   0   7   4   1   0   3   1   8  84   3   0   6   0   0   1  
 4  24   9   0   1   6   4  13   1   0   0   1   0  11   4  14   0   1   0  53   0   1   1   1   6  15   0  54  30   0  40   1   0  80   0   0   1  12  77   0   1   0   0   1   1   0   0  10  12  87   4   4  55   1  44   0  99  33  31   0  
 0   8   4   0   1   1  24  36  38   5   0   1  45   4   1   2  46   8  63   1   1  25   1   1  13   0   1   1  35  92  11  54   1   1   1   1  17   1   0  55  28   1   4   0   6   0   2   0   1  16  58   1  28   0   0   0  41   0  29  17  
 1   1   1   1   6   9   1  30  67  81  82   1  29   1   1   9   1   1  20   1  37   1   1   1  86   1   1   0   1  75   1   3   0   0   1   0  19   0  77   3   1   1  71   1   0   1  10  20   0  83  61  87   1   1   5  32   0  48  17  10  
 0   1  23   1  10  99   1   1  21  17   0  81  61   0   1  11   0   1   1   0   1  61   0   0  44  46   1   0   1  14   0   0   0  11   3   1   0  13  13   2   0   1   0  11  30   0   1   1   1   0  35   0   0  17  14   0  15   1   0   5  
 0   3   1   2  51   0   8  95  38  21   0  53   1   0  25  84  56   0   1   0   0   2   1   4   1   1   7  77   1   1  45   1   6  64   1  60   1  59   1   1   0   1  42   1   1  20   6   1  24   6   0  43   1   0   2   1   1   0  91   2  
 1   0   0   1   0   0   0   0   1   0   0  83   1   0   1   0   8  21  21   0  21   1   7  67   0  24   0   0  78   1   5   0   0   0   1  24  12  19   1  70   0  33   1   0   5   1  11  66   8  21   0   0   1   0   1   2  47   1   5  29  
48   0   5  54  25  11  21   0  51   4   1  47  15  62   1   0   1   0  73  88   1   1  33   1   0   0   6   1   1   1   1   5   0   4   1  84   3   1   1   4   1   0  24   0   1   0   1   1   0   2   1  11   0   1   1  84   0  13   1   0  
 3  44   0  13   0   1  11   1  13  26   3  83   1  54   1  82  19  11   0   1  22   0  15  20   0   1   3   4  75   2   1  43  52   1   5   1  58  20   1   0   0   1   0   1   1   1   9   1   1   1  12   6   1   0   1   1   1   1  26   1  
 1  32  19   7  20   1  83   1  13   1  26   0   0   1   1   0  12   2   0   1   0   8   0   0   1   1   1  29  12   2   0   0  58   0   2  17  90  17  28   0  74   0   1   1   0  17   0   0  63   0  35   1  10  24   0  68   0  26   1  18  
 0   0   4   0  76   1   1   3   6  42  18   1   5   3   1  40   0   1  58   1   0   1   1  10  18   0   1  62   0   0   1   1  64   7  70   1   1   0   1  89   2   0   1   0  97   0   2   1  69  25   4   1  98   0   1   0   8  35  44   7  
 0  72   1   1  18   0   1  10   2   4  10   1   0   0   1   9   1  29   1  21   1   0   0   1   0  34   6  27   3  18   1   0  11   5   0   1   0   9  89  16   0  53   5   1  56  10   1   1  71  84   1   0  16   1  14   1   0   1  60   4  
 1   3  39   3  14  57  57   3  24  24   2   0  31  10  16   0  94  53   0  94   1   1  15  71   1  18   1  55   1   0  14   1   1   1  11   0  50   1   4   1  53  67   0  94  85   1  61   1   0  33   1   2   1   0   1   9   1   0  71  30  
36  13  53   3   0   0   1   1   1  31   1   5   0   1  39   1  30   0   1  16   4   0  81   1  16   9   1  12   1   1  19   1   1  32   0   0   1   0  82   5  36   0   1  27  28  21  20   1   1   0  71  17  12   0   0   8  37  14   0   1  
 0   0   0  21   0  20   9   7   0   1   0  30  11  45   1   1   2  41   0   0   1   0   0   1   1  83  20   0  34   1   1   1   5   0   0   0   1   2  14   1   1   0   1   0   1   2   1   2  23  13  21  28   1   0  35   3   1  35   0   0  
